 B  N 
 1.0000000000000000
     2.5124282299999998    0.0000000000000000    0.0000000000000000
    -1.2562141149999992    2.1758266723651727    0.0000000000000000
     0.0000000000000000    0.0000000000000000    7.7072649999999996
 B   N  
   2   2
Cartesian
 -0.0000000125621408  1.4505511221628706  1.9268162499999997
  1.2562141275621410  0.7252755502023019  5.7804487499999997
 -0.0000000125621408  1.4505511221628706  5.7804487499999997
  1.2562141275621410  0.7252755502023019  1.9268162499999997
