 B  N 
 1.0000000000000000
     3.6260020000000002    0.0000000000000000    0.0000000000000000
     0.0000000000000000    3.6260020000000002    0.0000000000000000
     0.0000000000000000    0.0000000000000000    3.6260020000000002
 B   N  
   4   4
Cartesian
  0.0000000000000000  0.0000000000000000  0.0000000000000000
  0.0000000000000000  1.8130010000000001  1.8130010000000001
  1.8130010000000001  0.0000000000000000  1.8130010000000001
  1.8130010000000001  1.8130010000000001  0.0000000000000000
  0.9065005000000000  0.9065005000000000  2.7195015000000007
  0.9065005000000000  2.7195015000000007  0.9065005000000000
  2.7195015000000007  0.9065005000000000  0.9065005000000000
  2.7195015000000007  2.7195015000000007  2.7195015000000007
