 C 
 1.0000000000000000
     2.5033028126101167    0.0000000000000000    0.0000000000000000
    -1.2516514063050583    2.1679238290853973    0.0000000000000000
     0.0000000000000000    0.0000000000000000    4.1689686774999997
 C  
   4
Direct
  0.3333333333333333  0.6666666666666667  0.0628053470000000
  0.6666666666666667  0.3333333333333333  0.9371946530000000
  0.6666666666666667  0.3333333333333333  0.5628053470000000
  0.3333333333333333  0.6666666666666667  0.4371946529999999
