C4
1.0
        2.5033028126         0.0000000000         0.0000000000
       -1.2516514063         2.1679238291         0.0000000000
        0.0000000000         0.0000000000         4.1689686775
    C
    4
Direct
     0.333333343         0.666666687         0.062805347
     0.666666627         0.333333313         0.937194645
     0.666666627         0.333333313         0.562805355
     0.333333343         0.666666687         0.437194645
