 C 
 1.0000000000000000
     2.5033028200000000    0.0000000000000000    0.0000000000000000
    -1.2516514099999994    2.1679238354852242    0.0000000000000000
     0.0000000000000000    0.0000000000000000    4.1689688100000000
 C  
   4
Cartesian
 -0.0000000125165138  1.4452825642165623  0.2618335452511335
  1.2516514225165143  0.7226412712686618  3.9071352647488666
  1.2516513974834860  0.7226412712686618  2.3463179502511333
  0.0000000125165146  1.4452825642165623  1.8226508597488666
