 B  N                                   
   1.00000000000000     
     0.0000000000000000    1.8194870479427356    1.8194870479427356
     1.8194870479427356    0.0000000000000000    1.8194870479427356
     1.8194870479427356    1.8194870479427356   -0.0000000000000000
   B    N 
     1     1
Direct
 -0.0000000000000000 -0.0000000000000000 -0.0000000000000000
  0.7500000000000000  0.7500000000000000  0.7500000000000000
 
  0.00000000E+00  0.00000000E+00  0.00000000E+00
  0.00000000E+00  0.00000000E+00  0.00000000E+00
