 B  N 
 1.0000000000000000
     0.0000000000000000    1.8130009999999999    1.8130009999999999
     1.8130009999999999    0.0000000000000000    1.8130009999999999
     1.8130009999999999    1.8130009999999999    0.0000000000000000
 B   N  
   1   1
Direct
  0.0000000000000000  0.0000000000000000  0.0000000000000000
  0.7500000000000001  0.7500000000000001  0.7499999999999999
