KPT-Resolved Value to Generate K-Mesh: 0.030
0
Gamma
2   2   1
0.0  0.0  0.0
