 B  N 
 1.0000000000000000
     5.0248599051999996    0.0000000000000000    0.0000000000000000
     0.0000000000000000    3.8500000000000001    0.0000000000000000
   -10.0497131348000028    0.0000000000000000   17.4066137508999965
 B   N  
  16  16
Direct
  0.1666666494999999  0.4999999999999999  0.0833333155000000
  0.1666666495000002  0.4999999999999999  0.5833332925000000
  0.6666666644999998  0.4999999999999999  0.0833333155000000
  0.6666666644999999  0.4999999999999999  0.5833332925000000
  0.1666666495000000  0.4999999999999999  0.2083333225000000
  0.1666666495000002  0.4999999999999999  0.7083333525000001
  0.6666666644999999  0.4999999999999999  0.2083333225000000
  0.6666666645000000  0.4999999999999999  0.7083333525000001
  0.1666666494999999  0.4999999999999999  0.3333333225000000
  0.1666666495000008  0.4999999999999999  0.8333333525000002
  0.6666666644999999  0.4999999999999999  0.3333333225000000
  0.6666666645000007  0.4999999999999999  0.8333333525000002
  0.1666666494999999  0.4999999999999999  0.4583333225000000
  0.1666666495000004  0.4999999999999999  0.9583333525000001
  0.6666666644999999  0.4999999999999999  0.4583333225000000
  0.6666666645000001  0.4999999999999999  0.9583333525000001
  0.3333333204999999  0.4999999999999999  0.0416666475000000
  0.3333333204999999  0.4999999999999999  0.5416666664999999
  0.8333333504999997  0.4999999999999999  0.0416666475000000
  0.8333333504999997  0.4999999999999999  0.5416666664999999
  0.3333333204999999  0.4999999999999999  0.1666666515000000
  0.3333333205000001  0.4999999999999999  0.6666666665000001
  0.8333333504999997  0.4999999999999999  0.1666666515000000
  0.8333333504999997  0.4999999999999999  0.6666666665000001
  0.3333333204999999  0.4999999999999999  0.2916666365000000
  0.3333333205000005  0.4999999999999999  0.7916666065000001
  0.8333333504999997  0.4999999999999999  0.2916666365000000
  0.8333333504999999  0.4999999999999999  0.7916666065000001
  0.3333333205000000  0.4999999999999999  0.4166666365000000
  0.3333333204999999  0.4999999999999999  0.9166666065000001
  0.8333333504999997  0.4999999999999999  0.4166666365000000
  0.8333333505000001  0.4999999999999999  0.9166666065000001
