Ge Se 
 1.0000000000000000
     3.9928166178769899    0.0000000000000000    0.0000000000000000
     0.0000000000000000    4.2722969665537480    0.0000000000000000
     0.0000000000000000    0.0000000000000000   12.1873798677391427
 Ge  Se 
   2   2
Direct
  0.7499999919999994  0.7949709931153244  0.4007711846393474
  0.2500000080000006  0.2949709931153243  0.5992287823606607
  0.7499999919999994  0.7050289538846750  0.6065821976663621
  0.2500000080000006  0.2050290068846757  0.3934178023336379
