 B  N                                   
   1.00000000000000     
     2.5124282299999998    0.0000000000000000    0.0000000000000000
    -1.2562141149999999    2.1758266723651722    0.0000000000000000
     0.0000000000000000    0.0000000000000000    7.7072649999999996
   B    N 
     2     2
Direct
  0.3333333333333357  0.6666666666666643  0.2500000000000000
  0.6666666666666643  0.3333333333333357  0.7500000000000000
  0.3333333333333357  0.6666666666666643  0.7500000000000000
  0.6666666666666643  0.3333333333333357  0.2500000000000000
 
  0.00000000E+00  0.00000000E+00  0.00000000E+00
  0.00000000E+00  0.00000000E+00  0.00000000E+00
  0.00000000E+00  0.00000000E+00  0.00000000E+00
  0.00000000E+00  0.00000000E+00  0.00000000E+00
