 B  N 
 1.0000000000000000
     2.5124282299999998    0.0000000000000000    0.0000000000000000
    -1.2562141149999999    2.1758266723651722    0.0000000000000000
     0.0000000000000000    0.0000000000000000    7.7072649999999996
 B   N  
   2   2
Direct
  0.3333333333333333  0.6666666666666666  0.2499999999999999
  0.6666666666666667  0.3333333333333333  0.7500000000000000
  0.3333333333333333  0.6666666666666666  0.7500000000000000
  0.6666666666666667  0.3333333333333333  0.2499999999999999
