 C                                      
   1.00000000000000     
    -0.0000000000000000    1.7951189736433764    1.7951189736433764
     1.7951189736433764   -0.0000000000000000    1.7951189736433764
     1.7951189736433764    1.7951189736433764    0.0000000000000000
   C 
     2
Direct
  0.2500000000000000  0.2500000000000000  0.2500000000000000
 -0.0000000000000000 -0.0000000000000000 -0.0000000000000000
 
  0.00000000E+00  0.00000000E+00  0.00000000E+00
  0.00000000E+00  0.00000000E+00  0.00000000E+00
